<?xml version = "1.0" encoding="UTF-8" standalone="yes"?>
<CPLEXSolution version="1.2">
 <header
   problemName="IloCplex"
   solutionName="p0"
   solutionIndex="-1"
   objectiveValue="-2121891840"
   solutionTypeValue="3"
   solutionTypeString="primal"
   solutionStatusValue="127"
   solutionStatusString="integer feasible solution"
   solutionMethodString="mip"
   primalFeasible="0"
   dualFeasible="0"
   writeLevel="3"/>
 <quality
   epInt="1.0000000000000001e-05"
   epRHS="9.9999999999999995e-07"
   maxIntInfeas="9.9290322419509636e-06"
   maxPrimalInfeas="3.7252902984619141e-09"
   maxX="1"
   maxSlack="1"/>
 <variables>
  <variable name="w24_7" index="223" value="1"/>
  <variable name="u7" index="232" value="1"/>
  <variable name="x0_1" index="235" value="1"/>
  <variable name="x1_17" index="507" value="1"/>
  <variable name="x2_18" index="764" value="1"/>
  <variable name="x3_19" index="1021" value="1"/>
  <variable name="x4_89" index="1347" value="1"/>
  <variable name="x5_21" index="1535" value="1"/>
  <variable name="x6_7" index="1777" value="1"/>
  <variable name="x7_170" index="2196" value="1"/>
  <variable name="x8_9" index="2291" value="1"/>
  <variable name="x9_246" index="2784" value="1"/>
  <variable name="x10_26" index="2820" value="1"/>
  <variable name="x11_27" index="3077" value="1"/>
  <variable name="x12_11" index="3317" value="1"/>
  <variable name="x13_111" index="3673" value="1"/>
  <variable name="x14_13" index="3831" value="1"/>
  <variable name="x15_0" index="4074" value="1"/>
  <variable name="x16_32" index="4362" value="1"/>
  <variable name="x17_16" index="4602" value="1"/>
  <variable name="x18_34" index="4876" value="1"/>
  <variable name="x19_20" index="5118" value="1"/>
  <variable name="x20_36" index="5390" value="1"/>
  <variable name="x21_5" index="5615" value="1"/>
  <variable name="x22_97" index="5963" value="1"/>
  <variable name="x23_22" index="6144" value="1"/>
  <variable name="x24_25" index="6403" value="1"/>
  <variable name="x25_24" index="6658" value="1"/>
  <variable name="x26_23" index="6913" value="1"/>
  <variable name="x27_28" index="7174" value="1"/>
  <variable name="x28_29" index="7431" value="1"/>
  <variable name="x29_30" index="7688" value="1"/>
  <variable name="x30_31" index="7945" value="1"/>
  <variable name="x31_15" index="8185" value="0.99999503548387902"/>
  <variable name="x31_253" index="8423" value="4.9645161209754818e-06"/>
  <variable name="x32_48" index="8474" value="1"/>
  <variable name="x33_62" index="8744" value="1"/>
  <variable name="x34_49" index="8987" value="4.9645161209754818e-06"/>
  <variable name="x34_50" index="8988" value="0.99999503548387902"/>
  <variable name="x35_2" index="9196" value="1"/>
  <variable name="x36_52" index="9502" value="1"/>
  <variable name="x37_53" index="9759" value="0.99999503548387902"/>
  <variable name="x37_175" index="9881" value="4.9645161209754818e-06"/>
  <variable name="x38_54" index="10016" value="1"/>
  <variable name="x39_3" index="10221" value="1"/>
  <variable name="x40_56" index="10530" value="1"/>
  <variable name="x41_40" index="10770" value="1"/>
  <variable name="x42_58" index="11044" value="1"/>
  <variable name="x43_42" index="11284" value="1"/>
  <variable name="x44_45" index="11543" value="1"/>
  <variable name="x45_61" index="11815" value="1"/>
  <variable name="x46_12" index="12022" value="1"/>
  <variable name="x47_63" index="12329" value="1"/>
  <variable name="x48_65" index="12587" value="1"/>
  <variable name="x49_33" index="12811" value="1"/>
  <variable name="x50_66" index="13100" value="1"/>
  <variable name="x51_35" index="13325" value="1"/>
  <variable name="x52_138" index="13684" value="1"/>
  <variable name="x53_37" index="13839" value="1"/>
  <variable name="x54_38" index="14096" value="1"/>
  <variable name="x55_39" index="14353" value="1"/>
  <variable name="x56_57" index="14627" value="1"/>
  <variable name="x57_73" index="14899" value="1"/>
  <variable name="x58_59" index="15141" value="0.99999503548387902"/>
  <variable name="x58_74" index="15156" value="4.9645161209754818e-06"/>
  <variable name="x59_43" index="15381" value="1"/>
  <variable name="x60_44" index="15638" value="1"/>
  <variable name="x61_60" index="15910" value="1"/>
  <variable name="x62_46" index="16152" value="1"/>
  <variable name="x63_47" index="16409" value="1"/>
  <variable name="x64_80" index="16698" value="1"/>
  <variable name="x65_49" index="16923" value="0.99999503548387902"/>
  <variable name="x65_196" index="17070" value="4.9645161209754818e-06"/>
  <variable name="x66_67" index="17197" value="1"/>
  <variable name="x67_82" index="17468" value="1"/>
  <variable name="x68_69" index="17711" value="1"/>
  <variable name="x69_53" index="17951" value="4.9645161209754818e-06"/>
  <variable name="x69_70" index="17968" value="0.99999503548387902"/>
  <variable name="x70_71" index="18225" value="1"/>
  <variable name="x71_70" index="18480" value="4.9645161209754818e-06"/>
  <variable name="x71_87" index="18497" value="0.99999503548387902"/>
  <variable name="x72_88" index="18754" value="1"/>
  <variable name="x73_72" index="18994" value="4.9645161209754818e-06"/>
  <variable name="x73_74" index="18996" value="0.99999503548387902"/>
  <variable name="x74_55" index="19233" value="1"/>
  <variable name="x75_59" index="19493" value="4.9645161209754818e-06"/>
  <variable name="x75_76" index="19510" value="0.99999503548387902"/>
  <variable name="x76_41" index="19731" value="1"/>
  <variable name="x77_76" index="20022" value="4.9645161209754818e-06"/>
  <variable name="x77_78" index="20024" value="0.99999503548387902"/>
  <variable name="x78_79" index="20281" value="1"/>
  <variable name="x79_51" index="20509" value="1"/>
  <variable name="x80_81" index="20795" value="1"/>
  <variable name="x81_64" index="21034" value="1"/>
  <variable name="x82_83" index="21309" value="1"/>
  <variable name="x83_99" index="21581" value="1"/>
  <variable name="x84_91" index="21829" value="1"/>
  <variable name="x85_84" index="22078" value="1"/>
  <variable name="x86_85" index="22335" value="1"/>
  <variable name="x87_86" index="22592" value="1"/>
  <variable name="x88_72" index="22834" value="0.99999503548387902"/>
  <variable name="x88_87" index="22849" value="4.9645161209754818e-06"/>
  <variable name="x89_140" index="23158" value="1"/>
  <variable name="x90_75" index="23349" value="1"/>
  <variable name="x91_90" index="23620" value="1"/>
  <variable name="x92_4" index="23790" value="1"/>
  <variable name="x93_109" index="24151" value="1"/>
  <variable name="x94_94" index="24392" value="1"/>
  <variable name="x95_95" index="24649" value="1"/>
  <variable name="x96_112" index="24922" value="1"/>
  <variable name="x97_106" index="25172" value="1"/>
  <variable name="x98_98" index="25420" value="1"/>
  <variable name="x99_115" index="25693" value="1"/>
  <variable name="x100_100" index="25934" value="1"/>
  <variable name="x101_101" index="26191" value="1"/>
  <variable name="x102_102" index="26448" value="1"/>
  <variable name="x103_216" index="26818" value="1"/>
  <variable name="x104_103" index="26961" value="0.99999503548387902"/>
  <variable name="x104_176" index="27034" value="4.9645161209882059e-06"/>
  <variable name="x105_229" index="27343" value="1"/>
  <variable name="x106_105" index="27475" value="1"/>
  <variable name="x107_107" index="27733" value="1"/>
  <variable name="x108_108" index="27990" value="1"/>
  <variable name="x109_241" index="28379" value="1"/>
  <variable name="x110_93" index="28487" value="1"/>
  <variable name="x111_110" index="28760" value="1"/>
  <variable name="x112_127" index="29033" value="1"/>
  <variable name="x113_96" index="29258" value="1"/>
  <variable name="x114_113" index="29531" value="1"/>
  <variable name="x115_117" index="29791" value="1"/>
  <variable name="x116_131" index="30061" value="1"/>
  <variable name="x117_118" index="30304" value="1"/>
  <variable name="x118_233" index="30675" value="1"/>
  <variable name="x119_103" index="30801" value="4.9645161209754818e-06"/>
  <variable name="x119_135" index="30833" value="0.99999503548387902"/>
  <variable name="x120_104" index="31058" value="1"/>
  <variable name="x121_120" index="31330" value="1"/>
  <variable name="x122_136" index="31602" value="4.9645161209754818e-06"/>
  <variable name="x122_139" index="31605" value="0.99999503548387902"/>
  <variable name="x123_123" index="31845" value="1"/>
  <variable name="x124_179" index="32157" value="1"/>
  <variable name="x125_141" index="32375" value="1"/>
  <variable name="x126_126" index="32616" value="1"/>
  <variable name="x127_6" index="32752" value="1"/>
  <variable name="x128_128" index="33130" value="1"/>
  <variable name="x129_129" index="33387" value="1"/>
  <variable name="x130_68" index="33582" value="1"/>
  <variable name="x131_147" index="33917" value="1"/>
  <variable name="x132_116" index="34142" value="1"/>
  <variable name="x133_149" index="34431" value="1"/>
  <variable name="x134_150" index="34688" value="1"/>
  <variable name="x135_135" index="34929" value="4.9645161209754818e-06"/>
  <variable name="x135_136" index="34930" value="0.99999503548387902"/>
  <variable name="x136_137" index="35187" value="1"/>
  <variable name="x137_153" index="35459" value="1"/>
  <variable name="x138_122" index="35684" value="1"/>
  <variable name="x139_161" index="35979" value="1"/>
  <variable name="x140_124" index="36198" value="0.99999503548387902"/>
  <variable name="x140_139" index="36213" value="4.9645161209754818e-06"/>
  <variable name="x141_125" index="36455" value="1"/>
  <variable name="x142_119" index="36705" value="1"/>
  <variable name="x143_219" index="37061" value="1"/>
  <variable name="x144_144" index="37242" value="1"/>
  <variable name="x145_145" index="37499" value="1"/>
  <variable name="x146_130" index="37740" value="1"/>
  <variable name="x147_163" index="38029" value="1"/>
  <variable name="x148_132" index="38254" value="1"/>
  <variable name="x149_133" index="38511" value="1"/>
  <variable name="x150_134" index="38768" value="1"/>
  <variable name="x151_151" index="39041" value="1"/>
  <variable name="x152_152" index="39298" value="1"/>
  <variable name="x153_154" index="39556" value="1"/>
  <variable name="x154_169" index="39827" value="1"/>
  <variable name="x155_171" index="40085" value="1"/>
  <variable name="x156_156" index="40326" value="1"/>
  <variable name="x157_173" index="40599" value="1"/>
  <variable name="x158_142" index="40824" value="1"/>
  <variable name="x159_143" index="41081" value="1"/>
  <variable name="x160_160" index="41354" value="1"/>
  <variable name="x161_146" index="41596" value="1"/>
  <variable name="x162_162" index="41868" value="1"/>
  <variable name="x163_164" index="42126" value="1"/>
  <variable name="x164_148" index="42366" value="1"/>
  <variable name="x165_181" index="42655" value="1"/>
  <variable name="x166_78" index="42808" value="4.9645161209754818e-06"/>
  <variable name="x166_182" index="42912" value="0.99999503548387902"/>
  <variable name="x167_166" index="43152" value="1"/>
  <variable name="x168_168" index="43410" value="1"/>
  <variable name="x169_234" index="43732" value="1"/>
  <variable name="x170_174" index="43928" value="1"/>
  <variable name="x171_155" index="44165" value="1"/>
  <variable name="x172_188" index="44454" value="1"/>
  <variable name="x173_157" index="44679" value="1"/>
  <variable name="x174_158" index="44936" value="1"/>
  <variable name="x175_159" index="45193" value="1"/>
  <variable name="x176_191" index="45481" value="1"/>
  <variable name="x177_177" index="45723" value="1"/>
  <variable name="x178_178" index="45980" value="1"/>
  <variable name="x179_210" index="46268" value="1"/>
  <variable name="x180_165" index="46479" value="1"/>
  <variable name="x181_180" index="46750" value="1"/>
  <variable name="x182_197" index="47023" value="1"/>
  <variable name="x183_183" index="47265" value="1"/>
  <variable name="x184_200" index="47538" value="1"/>
  <variable name="x185_185" index="47779" value="1"/>
  <variable name="x186_187" index="48037" value="1"/>
  <variable name="x187_186" index="48292" value="1"/>
  <variable name="x188_172" index="48534" value="1"/>
  <variable name="x189_190" index="48808" value="0.99999007096775805"/>
  <variable name="x189_249" index="48867" value="9.9290322419509636e-06"/>
  <variable name="x190_189" index="49063" value="1"/>
  <variable name="x191_175" index="49305" value="0.99999503548387902"/>
  <variable name="x191_176" index="49306" value="4.9645161209754818e-06"/>
  <variable name="x192_192" index="49578" value="1"/>
  <variable name="x193_77" index="49719" value="9.9290322419509636e-06"/>
  <variable name="x193_176" index="49818" value="0.99999007096775805"/>
  <variable name="x194_194" index="50092" value="1"/>
  <variable name="x195_211" index="50365" value="1"/>
  <variable name="x196_195" index="50605" value="1"/>
  <variable name="x197_182" index="50848" value="4.9645161209754818e-06"/>
  <variable name="x197_213" index="50879" value="0.99999503548387902"/>
  <variable name="x198_198" index="51120" value="1"/>
  <variable name="x199_199" index="51377" value="1"/>
  <variable name="x200_184" index="51618" value="1"/>
  <variable name="x201_251" index="51941" value="1"/>
  <variable name="x202_202" index="52148" value="1"/>
  <variable name="x203_203" index="52405" value="1"/>
  <variable name="x204_204" index="52662" value="1"/>
  <variable name="x205_221" index="52935" value="1"/>
  <variable name="x206_206" index="53176" value="1"/>
  <variable name="x207_207" index="53433" value="1"/>
  <variable name="x208_208" index="53690" value="1"/>
  <variable name="x209_193" index="53931" value="1"/>
  <variable name="x210_209" index="54203" value="1"/>
  <variable name="x211_212" index="54462" value="1"/>
  <variable name="x212_196" index="54702" value="0.99999503548387902"/>
  <variable name="x212_213" index="54719" value="4.9645161209754818e-06"/>
  <variable name="x213_92" index="54854" value="0.99999007096775805"/>
  <variable name="x213_215" index="54977" value="9.9290322419509636e-06"/>
  <variable name="x214_214" index="55232" value="1"/>
  <variable name="x215_232" index="55506" value="1"/>
  <variable name="x216_205" index="55735" value="9.9290322419509636e-06"/>
  <variable name="x216_215" index="55745" value="0.99999007096775805"/>
  <variable name="x217_217" index="56003" value="1"/>
  <variable name="x218_201" index="56243" value="1"/>
  <variable name="x219_220" index="56518" value="1"/>
  <variable name="x220_167" index="56721" value="1"/>
  <variable name="x221_205" index="57015" value="0.99999007096775805"/>
  <variable name="x221_236" index="57046" value="9.9290322419509636e-06"/>
  <variable name="x222_238" index="57304" value="1"/>
  <variable name="x223_223" index="57545" value="1"/>
  <variable name="x224_239" index="57817" value="0.99999007096775805"/>
  <variable name="x224_240" index="57818" value="9.9290322419509636e-06"/>
  <variable name="x225_224" index="58058" value="1"/>
  <variable name="x226_225" index="58315" value="1"/>
  <variable name="x227_226" index="58572" value="1"/>
  <variable name="x228_228" index="58830" value="1"/>
  <variable name="x229_230" index="59088" value="1"/>
  <variable name="x230_245" index="59359" value="1"/>
  <variable name="x231_231" index="59601" value="1"/>
  <variable name="x232_114" index="59740" value="1"/>
  <variable name="x233_15" index="59897" value="4.9645161209754818e-06"/>
  <variable name="x233_124" index="60006" value="4.9645161209754818e-06"/>
  <variable name="x233_249" index="60131" value="0.99999007096775805"/>
  <variable name="x234_218" index="60356" value="1"/>
  <variable name="x235_190" index="60584" value="9.9290322419509636e-06"/>
  <variable name="x235_236" index="60630" value="0.99999007096775805"/>
  <variable name="x236_237" index="60887" value="1"/>
  <variable name="x237_50" index="60956" value="4.9645161209754818e-06"/>
  <variable name="x237_253" index="61159" value="0.99999503548387902"/>
  <variable name="x238_222" index="61384" value="1"/>
  <variable name="x239_92" index="61510" value="9.9290322419509636e-06"/>
  <variable name="x239_255" index="61673" value="0.99999007096775805"/>
  <variable name="x240_77" index="61751" value="0.99999007096775805"/>
  <variable name="x240_239" index="61913" value="9.9290322419509636e-06"/>
  <variable name="x241_121" index="62051" value="1"/>
  <variable name="x242_242" index="62428" value="1"/>
  <variable name="x243_227" index="62669" value="1"/>
  <variable name="x244_243" index="62941" value="1"/>
  <variable name="x245_244" index="63198" value="1"/>
  <variable name="x246_8" index="63218" value="1"/>
  <variable name="x247_247" index="63713" value="1"/>
  <variable name="x248_248" index="63970" value="1"/>
  <variable name="x249_10" index="63988" value="1"/>
  <variable name="x250_250" index="64484" value="1"/>
  <variable name="x251_235" index="64725" value="1"/>
  <variable name="x252_254" index="65000" value="1"/>
  <variable name="x253_252" index="65254" value="1"/>
  <variable name="x254_14" index="65272" value="1"/>
  <variable name="x255_240" index="65754" value="0.99999007096775805"/>
  <variable name="x255_255" index="65769" value="9.9290322419509636e-06"/>
  <variable name="k24" index="65794" value="1"/>
 </variables>
</CPLEXSolution>
